NAME          MIP_VARIED_EX08
ROWS
 N   OBJ
 L   C1
 G   C2
COLUMNS
    X1       OBJ       1
    X2       OBJ       2
    X2       C1       3
    X2       C2       2
    X3       OBJ       1
    X3       C1       2
    X3       C2       1
RHS
    RHS1     C1        3
    RHS1     C2        8
BOUNDS
 BV BND1     X1
 BV BND1     X2
 BV BND1     X3
ENDATA